c --- [ banner ] -------------------------------------------------------------
c 
c CaDiCaL Radically Simplified CDCL SAT Solver
c Copyright (c) 2016-2021 A. Biere, M. Fleury, N. Froleyks
c 
c Version 1.5.2 ca9bff05c11bde5eae4912f9932871d1527e61d8
c g++ (GCC) 9.3.0 -Wall -Wextra -O3 -DNDEBUG
c Sun May 1 02:23:23 EDT 2022 Linux gra-login1 3.10.0-1160.59.1.el7.x86_64 x86_64
c 
c --- [ limit ] --------------------------------------------------------------
c 
c setting conflict limit to 200000 conflicts (due to '200000')
c 
c --- [ parsing input ] ------------------------------------------------------
c 
c reading DIMACS file from '12.cubes533.adj'
c opening file to read '12.cubes533.adj'
c found 'p cnf 5320 924210' header
c parsed 924210 clauses in 7.00 seconds process time
c closing file '12.cubes533.adj'
c after reading 686668114 bytes 654.9 MB
c 
c --- [ options ] ------------------------------------------------------------
c 
c all options are set to their default value
c 
c --- [ solving ] ------------------------------------------------------------
c 
c time measured in process time since initialization
c 
c  seconds   reductions  redundant  irredundant
c          MB    restarts       trail      variables
c           level   conflicts       glue        remaining
c 
c *  7.00 692  0 0   0    0    0  0% 0 923580 3854 72%
c {  7.68 727  0 0   0    0    0  0% 0 923580 3854 72%
c i  8.66 739 85 0  12  118   97 55% 27 923580 3853 72%
c i  8.76 739 73 0  12  142  113 55% 23 923580 3852 72%
c i  8.79 739 67 0  12  159  120 54% 22 923580 3851 72%
c i  8.80 739 66 0  12  164  122 54% 21 923580 3850 72%
c i  8.80 739 65 0  12  166  123 54% 21 923580 3842 72%
c i  8.81 739 64 0  12  169  124 54% 21 923580 3841 72%
c i  8.85 739 57 0  12  196  143 53% 19 923580 3838 72%
c i  9.09 741 59 0  15  233  176 52% 20 923580 3834 72%
c i  9.19 741 53 0  15  269  203 52% 19 923580 3833 72%
c i  9.23 742 51 0  15  280  213 52% 18 923580 3832 72%
c - 10.66 716 48 1  15  301  222 51% 17 108685 3832 72%
c i 10.83 687 42 1  15  361  267 51% 16 108685 3831 72%
c i 10.83 687 42 1  15  368  273 52% 15 108685 3830 72%
c i 10.86 687 40 1  15  398  294 52% 15 108685 3829 72%
c i 10.88 687 38 1  15  430  309 52% 15 108685 3828 72%
c i 10.88 687 38 1  15  431  309 52% 15 108685 3827 72%
c i 10.88 687 38 1  15  432  309 52% 15 108685 3826 72%
c i 10.88 687 38 1  15  440  315 52% 15 108685 3825 72%
c 
c  seconds   reductions  redundant   irredundant
c          MB    restarts       trail       variables
c           level   conflicts       glue         remaining
c 
c i 10.90 687 37 1  15  449  321 52% 15 108685 3824 72%
c i 10.93 687 34 1  15  515  358 52% 14 108685 3823 72%
c i 10.94 687 34 1  15  516  358 52% 14 108685 3822 72%
c i 10.98 687 32 1  15  605  419 52% 14 108685 3821 72%
c i 11.06 687 33 1  20  659  463 51% 14 108685 3819 72%
c i 11.07 687 32 1  20  677  476 51% 14 108685 3818 72%
c i 11.09 687 31 1  20  704  487 51% 13 108685 3812 72%
c i 11.10 687 31 1  20  708  490 51% 13 108685 3807 72%
c i 11.22 687 32 1  21  795  562 51% 13 108685 3806 72%
c i 11.24 687 31 1  21  839  591 51% 13 108685 3805 72%
c i 11.25 687 31 1  21  854  603 51% 13 108685 3804 72%
c - 11.42 722 29 2  21  923  570 52% 13 108444 3804 72%
c i 11.44 722 29 2  21  935  581 52% 13 108444 3803 71%
c i 11.45 722 29 2  21  960  596 52% 13 108444 3802 71%
c i 11.45 722 29 2  21  970  603 52% 13 108444 3801 71%
c i 11.46 722 29 2  21  991  616 52% 13 108444 3800 71%
c } 11.48 722 29 2  21 1001  626 52% 13 108444 3800 71%
c [ 11.48 722  0 2  21 1001  626  0% 0 108444 3800 71%
c O 11.48 722  1 2  21 1002  627 34% 1 108444 3800 71%
c i 11.48 722  0 2  21 1003  627 34% 0 108444 3751 71%
c 
c  seconds   reductions  redundant  irredundant
c          MB    restarts       trail      variables
c           level   conflicts       glue        remaining
c 
c i 11.50 722  6 2  21 1064  656 38% 4 108444 3750 70%
c i 11.50 722  6 2  21 1065  656 38% 4 108444 3749 70%
c i 11.55 722 20 2  21 1213  756 51% 17 108444 3748 70%
c i 11.55 722 21 2  21 1235  772 52% 17 108444 3747 70%
c i 11.56 722 21 2  21 1258  788 52% 18 108444 3746 70%
c - 11.72 720 21 3  21 1854 1013 55% 18 107904 3746 70%
c i 11.92 720 19 3  22 2893 1738 56% 16 107904 3745 70%
c i 11.93 720 19 3  22 2921 1755 56% 16 107904 3744 70%
c ] 11.94 720 19 3  22 3004 1816 56% 16 107904 3744 70%
c { 11.94 720 29 3  22 3004 1816 52% 13 107904 3744 70%
c F 12.02 720 29 3  22 3005 1817 21% 13 107898 3744 70%
c i 12.04 720 28 3  22 3030 1834 34% 13 107898 3743 70%
c i 12.06 720 28 3  22 3054 1843 32% 12 107898 3742 70%
c i 12.06 720 28 3  22 3057 1845 32% 12 107898 3741 70%
c i 12.07 720 27 3  22 3085 1862 31% 12 107898 3740 70%
c i 12.07 720 27 3  22 3086 1862 31% 12 107898 3739 70%
c - 12.13 688 27 4  22 3095 1362 32% 12 107883 3739 70%
c i 12.83 688 32 4 134 3741 1834 31% 16 107883 3738 70%
c i 13.00 688 32 4 156 3885 1954 31% 16 107883 3737 70%
c i 13.03 688 31 4 157 3942 2001 31% 16 107883 3736 70%
c 
c  seconds   reductions  redundant   irredundant
c          MB    restarts       trail       variables
c           level   conflicts       glue         remaining
c 
c i 13.04 688 31 4 157 3952 2010 31% 16 107883 3735 70%
c i 13.07 688 31 4 160 4007 2060 31% 16 107883 3734 70%
c i 13.07 688 31 4 160 4013 2064 31% 16 107883 3733 70%
c i 13.12 688 30 4 179 4269 2264 32% 16 107883 3732 70%
c i 13.21 688 30 4 190 4323 2310 32% 16 107883 3731 70%
c - 13.54 688 30 5 203 4647 1794 32% 16 107859 3731 70%
c i 13.73 689 31 5 229 4842 1937 32% 16 107859 3730 70%
c d 14.02 689 32 5 270 5000 2063 32% 17 101165 3719 70%
c 2 14.05 689 32 5 270 5000 3660 32% 17 101106 3718 70%
c p 15.33 688 32 5 270 5000 9555 32% 17 101106 3627 68%
c d 15.43 689 32 5 270 5000 8669 32% 17 100511 3623 68%
c d 15.46 689 32 5 270 5000 8664 32% 17 100509 3622 68%
c # 15.70 689 27 5 289 6009 9197 34% 16 100509 3622 68%
c - 15.92 689 26 6 296 6506 2356 33% 15 100509 3622 68%
c } 16.04 689 24 6 296 7004 2583 34% 14 100509 3622 68%
c [ 16.04 689 19 6 296 7004 2583 79% 16 100509 3622 68%
c - 16.38 693 16 7 297 8610 2434 60% 14 100509 3622 68%
c i 16.51 693 16 7 298 9403 2808 56% 13 100509 3621 68%
c I 16.66 693 19 7 298 10010 3281 53% 15 100509 3621 68%
c - 17.15 693 20 8 299 11015 2289 49% 15 100506 3621 68%
c 
c  seconds   reductions   redundant   irredundant
c          MB    restarts        trail       variables
c           level    conflicts       glue         remaining
c 
c ] 17.32 693 20 8 300 11850 2729 47% 16 100506 3621 68%
c 1 17.32 693 20 8 300 11850 2729 47% 16 100506 3621 68%
c 
c --- [ writing output ] -----------------------------------------------------
c 
c writing simplified CNF to DIMACS file 'simp/12.cubes533.adj.simp1'
c * 17.32 693 20 8 300 11850 2729 47% 16 100506 3621 68%
c opening file to write 'simp/12.cubes533.adj.simp1'
c writing 'p cnf 5320 100506' header
c closing file 'simp/12.cubes533.adj.simp1'
c after writing 27660123 bytes 26.4 MB
c wrote 100506 clauses in 0.15 seconds process time
c 
c --- [ writing extension ] --------------------------------------------------
c 
c writing extension stack to 'simp/12.cubes533.adj.ext1'
c opening file to write 'simp/12.cubes533.adj.ext1'
c closing file 'simp/12.cubes533.adj.ext1'
c after writing 25046 bytes 0.0 MB
c wrote 1715 witnesses in 0.00 seconds process time
c 
c --- [ result ] -------------------------------------------------------------
c 
s SATISFIABLE
c 
c --- [ run-time profiling ] -------------------------------------------------
c 
c process time taken by individual solving procedures
c (percentage relative to process time for solving)
c 
c         8.78   85.10% search
c         7.00   67.85% parse
c         6.35   61.50% unstable
c         1.75   16.98% stable
c         1.54   14.90% simplify
c         1.29   12.46% probe
c         0.68    6.61% lucky
c         0.02    0.19% ternary
c   =================================
c        10.32   59.05% solve
c 
c last line shows process time for solving
c (percentage relative to total process time)
c 
c --- [ statistics ] ---------------------------------------------------------
c 
c chronological:              2606        21.99 %  of conflicts
c conflicts:                 11850      1148.26    per second
c decisions:                 29998      2906.80    per second
c fixed:                      1683        31.64 %  of all variables
c learned:                   11565        97.59 %  per conflict
c learned_lits:            1369954       100.00 %  learned literals
c minimized:                     0         0.00 %  learned literals
c shrunken:                 859308        62.73 %  learned literals
c minishrunken:             106720         7.79 %  learned literals
c propagations:            2611199         0.25 M  per second
c reduced:                    3484        29.40 %  per conflict
c rephased:                      4      2962.50    interval
c restarts:                    300        39.50    interval
c stabilizing:                   2        57.80 %  of conflicts
c substituted:                  16         0.30 %  of all variables
c subsumed:                   4182         0.21 %  of all clauses
c ternary:                    1597         0.48 %  of resolved
c weakened:                     32         2.00    average size
c 
c seconds are measured in process time for solving
c 
c --- [ resources ] ----------------------------------------------------------
c 
c total process time since initialization:        17.48    seconds
c total real time since initialization:           17.57    seconds
c maximum resident set size of process:          754.71    MB
c 
c --- [ shutting down ] ------------------------------------------------------
c 
c exit 10
c --- [ banner ] -------------------------------------------------------------
c 
c CaDiCaL Radically Simplified CDCL SAT Solver
c Copyright (c) 2016-2021 A. Biere, M. Fleury, N. Froleyks
c 
c Version 1.5.2 ca9bff05c11bde5eae4912f9932871d1527e61d8
c g++ (GCC) 9.3.0 -Wall -Wextra -O3 -DNDEBUG
c Sun May 1 02:23:23 EDT 2022 Linux gra-login1 3.10.0-1160.59.1.el7.x86_64 x86_64
c 
c --- [ limit ] --------------------------------------------------------------
c 
c setting conflict limit to 200000 conflicts (due to '200000')
c 
c --- [ parsing input ] ------------------------------------------------------
c 
c reading DIMACS file from 'simp/12.cubes533.adj.simp1'
c opening file to read 'simp/12.cubes533.adj.simp1'
c found 'p cnf 5320 100506' header
c parsed 100506 clauses in 0.28 seconds process time
c closing file 'simp/12.cubes533.adj.simp1'
c after reading 27660123 bytes 26.4 MB
c 
c --- [ options ] ------------------------------------------------------------
c 
c all options are set to their default value
c 
c --- [ solving ] ------------------------------------------------------------
c 
c time measured in process time since initialization
c 
c  seconds  reductions  redundant  irredundant
c         MB    restarts       trail      variables
c          level   conflicts       glue        remaining
c 
c *  0.28 34  0 0   0    0    0  0% 0 100506 3595 68%
c {  0.31 37  0 0   0    0    0  0% 0 100506 3595 68%
c -  0.41 41 63 1   1  300  242 27% 18 100506 3595 68%
c -  0.61 67 35 2   1  901  567 24% 16 100506 3595 68%
c }  0.64 67 34 2   1 1002  637 24% 15 100506 3595 68%
c [  0.64 67  0 2   1 1002  637  0% 0 100506 3595 68%
c O  0.64 67 30 2   1 1003  638  4% 2 100506 3595 68%
c -  0.80 67 38 3   1 1803  720 24% 11 100506 3595 68%
c ]  0.82 67 39 3   1 1878  766 24% 12 100506 3595 68%
c 1  0.82 67 39 3   1 1878  766 24% 12 100506 3595 68%
c 
c --- [ writing output ] -----------------------------------------------------
c 
c writing simplified CNF to DIMACS file 'simp/12.cubes533.adj.simp2'
c *  0.82 67 39 3   1 1878  766 24% 12 100506 3595 68%
c opening file to write 'simp/12.cubes533.adj.simp2'
c writing 'p cnf 5320 100506' header
c closing file 'simp/12.cubes533.adj.simp2'
c after writing 27660123 bytes 26.4 MB
c wrote 100506 clauses in 0.20 seconds process time
c 
c --- [ writing extension ] --------------------------------------------------
c 
c writing extension stack to 'simp/12.cubes533.adj.ext2'
c opening file to write 'simp/12.cubes533.adj.ext2'
c closing file 'simp/12.cubes533.adj.ext2'
c after writing 0 bytes 0.0 MB
c wrote 0 witnesses in 0.00 seconds process time
c 
c --- [ result ] -------------------------------------------------------------
c 
s SATISFIABLE
c 
c --- [ run-time profiling ] -------------------------------------------------
c 
c process time taken by individual solving procedures
c (percentage relative to process time for solving)
c 
c         0.54   99.98% search
c         0.33   60.91% unstable
c         0.28   52.06% parse
c         0.18   33.82% stable
c         0.03    5.24% lucky
c         0.00    0.00% simplify
c   =================================
c         0.54   52.68% solve
c 
c last line shows process time for solving
c (percentage relative to total process time)
c 
c --- [ statistics ] ---------------------------------------------------------
c 
c chronological:               463        24.65 %  of conflicts
c conflicts:                  1878      3494.31    per second
c decisions:                  6037     11232.78    per second
c learned:                    1828        97.34 %  per conflict
c learned_lits:             179951       100.00 %  learned literals
c minimized:                     0         0.00 %  learned literals
c shrunken:                 120609        67.02 %  learned literals
c minishrunken:              11292         6.28 %  learned literals
c propagations:             336796         0.63 M  per second
c reduced:                     414        22.04 %  per conflict
c rephased:                      1      1878.00    interval
c restarts:                      1      1878.00    interval
c stabilizing:                   1        46.65 %  of conflicts
c subsumed:                    648         0.32 %  of all clauses
c 
c seconds are measured in process time for solving
c 
c --- [ resources ] ----------------------------------------------------------
c 
c total process time since initialization:         1.02    seconds
c total real time since initialization:            1.29    seconds
c maximum resident set size of process:           92.88    MB
c 
c --- [ shutting down ] ------------------------------------------------------
c 
c exit 10
c --- [ banner ] -------------------------------------------------------------
c 
c CaDiCaL Radically Simplified CDCL SAT Solver
c Copyright (c) 2016-2021 A. Biere, M. Fleury, N. Froleyks
c 
c Version 1.5.2 ca9bff05c11bde5eae4912f9932871d1527e61d8
c g++ (GCC) 9.3.0 -Wall -Wextra -O3 -DNDEBUG
c Sun May 1 02:23:23 EDT 2022 Linux gra-login1 3.10.0-1160.59.1.el7.x86_64 x86_64
c 
c --- [ limit ] --------------------------------------------------------------
c 
c setting conflict limit to 200000 conflicts (due to '200000')
c 
c --- [ parsing input ] ------------------------------------------------------
c 
c reading DIMACS file from 'simp/12.cubes533.adj.simp2'
c opening file to read 'simp/12.cubes533.adj.simp2'
c found 'p cnf 5320 100506' header
c parsed 100506 clauses in 0.29 seconds process time
c closing file 'simp/12.cubes533.adj.simp2'
c after reading 27660123 bytes 26.4 MB
c 
c --- [ options ] ------------------------------------------------------------
c 
c all options are set to their default value
c 
c --- [ solving ] ------------------------------------------------------------
c 
c time measured in process time since initialization
c 
c  seconds  reductions  redundant  irredundant
c         MB    restarts       trail      variables
c          level   conflicts       glue        remaining
c 
c *  0.29 34  0 0   0    0    0  0% 0 100506 3595 68%
c {  0.31 37  0 0   0    0    0  0% 0 100506 3595 68%
c -  0.39 39 48 1   1  301  254 24% 13 100506 3595 68%
c -  1.06 75 42 2  73  902  630 21% 15 100506 3595 68%
c }  1.09 75 40 2  83 1001  706 21% 15 100506 3595 68%
c [  1.09 75  0 2  83 1001  706  0% 0 100506 3595 68%
c O  1.10 75 30 2  83 1002  707  4% 1 100506 3595 68%
c -  1.26 68 44 3  83 1803  896 24% 17 100506 3595 68%
c ]  1.45 68 30 3  84 3002 1461 33% 15 100506 3595 68%
c {  1.46 68 40 3  84 3002 1461 31% 15 100506 3595 68%
c F  1.46 68 40 3  85 3003 1462 31% 15 100506 3595 68%
c -  1.48 65 40 4  86 3008 1017 31% 15 100506 3595 68%
c i  1.48 65 39 4  87 3030 1024 30% 15 100506 3549 67%
c -  2.07 89 30 5 192 4511 1587 32% 16 99817 3549 67%
c 2  2.39 89 30 5 255 5002 3358 32% 16 99798 3549 67%
c p  2.55 89 30 5 255 5002 8026 32% 16 99798 3548 67%
c d  2.62 89 30 5 255 5002 8015 32% 16 88498 3543 67%
c #  3.03 89 29 5 302 6004 8697 31% 16 88498 3543 67%
c -  3.17 88 28 6 302 6311 2360 31% 15 88498 3543 67%
c }  3.33 88 26 6 304 7003 2862 31% 15 88498 3543 67%
c 
c  seconds  reductions  redundant   irredundant
c         MB    restarts       trail      variables
c          level   conflicts       glue        remaining
c 
c [  3.33 88 30 6 304 7003 2862 33% 15 88498 3543 67%
c -  3.67 88 25 7 305 8413 2721 34% 15 88498 3543 67%
c s  4.03 88 24 7 306 9613 3301 34% 15 86472 3543 67%
c v  4.40 88 24 7 306 9613 3301 34% 15 86412 3543 67%
c w  4.41 88 24 7 306 9613 3296 34% 15 86412 3543 67%
c t  4.42 88 24 7 306 9613 3292 34% 15 86354 3543 67%
c e  4.51 93 24 7 306 9613 2935 34% 15 81260 682 13%
c s  4.56 93 24 7 306 9613 2934 34% 15 80847 682 13%
c I  4.79 103 24 7 306 10005 3251 66% 16 80847 682 13%
c -  5.01 103 25 8 307 10813 2985 63% 17 80847 682 13%
c -  5.47 103 24 9 309 13515 3079 63% 18 80847 682 13%
c ]  5.72 103 23 9 309 15007 3918 63% 18 80847 682 13%
c {  5.72 103 26 9 309 15007 3918 164% 15 80847 682 13%
c 2  5.76 103 26 9 309 15007 4300 164% 15 80842 681 13%
c p  5.89 103 26 9 309 15007 5871 164% 15 80842 679 13%
c B  5.90 103 26 9 309 15008 5872 164% 15 80842 679 13%
c -  6.32 103 24 10 369 16516 3722 140% 15 80836 679 13%
c -  6.85 103 21 11 432 19819 3984 114% 13 80836 679 13%
c W  7.02 103 20 11 432 21009 4592 108% 13 80836 679 13%
c -  7.60 103 19 12 478 23419 4444 100% 13 80836 679 13%
c 
c  seconds   reductions    redundant   irredundant
c          MB     restarts        trail      variables
c           level     conflicts       glue       remaining
c 
c }  8.19 103 18 12 510 26496 6103 92% 12 80836 679 13%
c 1  8.19 103 18 12 510 26496 6103 92% 12 80836 679 13%
c 
c --- [ writing output ] -----------------------------------------------------
c 
c writing simplified CNF to DIMACS file 'simp/12.cubes533.adj.simp3'
c *  8.19 103 18 12 510 26496 6103 92% 12 80836 679 13%
c opening file to write 'simp/12.cubes533.adj.simp3'
c writing 'p cnf 5320 80836' header
c closing file 'simp/12.cubes533.adj.simp3'
c after writing 22989471 bytes 21.9 MB
c wrote 80836 clauses in 0.13 seconds process time
c 
c --- [ writing extension ] --------------------------------------------------
c 
c writing extension stack to 'simp/12.cubes533.adj.ext3'
c opening file to write 'simp/12.cubes533.adj.ext3'
c closing file 'simp/12.cubes533.adj.ext3'
c after writing 137388 bytes 0.1 MB
c wrote 5799 witnesses in 0.00 seconds process time
c 
c --- [ result ] -------------------------------------------------------------
c 
s SATISFIABLE
c 
c --- [ run-time profiling ] -------------------------------------------------
c 
c process time taken by individual solving procedures
c (percentage relative to process time for solving)
c 
c         6.82   86.35% search
c         4.63   58.63% unstable
c         2.11   26.64% stable
c         1.08   13.65% simplify
c         0.37    4.71% vivify
c         0.30    3.78% probe
c         0.29    3.61% parse
c         0.18    2.25% elim
c         0.09    1.15% subsume
c         0.06    0.77% walk
c         0.02    0.30% lucky
c         0.02    0.29% ternary
c   =================================
c         7.90   94.97% solve
c 
c last line shows process time for solving
c (percentage relative to total process time)
c 
c --- [ statistics ] ---------------------------------------------------------
c 
c chronological:              5488        20.71 %  of conflicts
c conflicts:                 26496      3352.72    per second
c decisions:                 49477      6260.66    per second
c eliminated:                 2861        53.78 %  of all variables
c fixed:                        49         0.92 %  of all variables
c learned:                   25890        97.71 %  per conflict
c learned_lits:            2731462       100.00 %  learned literals
c minimized:                     0         0.00 %  learned literals
c shrunken:                1791784        65.60 %  learned literals
c minishrunken:             161813         5.92 %  learned literals
c propagations:            3082556         0.39 M  per second
c reduced:                    9692        36.58 %  per conflict
c rephased:                      6      4416.00    interval
c restarts:                    510        51.95    interval
c stabilizing:                   2        37.76 %  of conflicts
c substituted:                   6         0.11 %  of all variables
c subsumed:                  12472         4.56 %  of all clauses
c strengthened:               5281         1.93 %  of all clauses
c ternary:                    1744         0.55 %  of resolved
c vivified:                    109         0.04 %  of all clauses
c walked:                        1     26496.00    interval
c weakened:                   5750         2.89    average size
c 
c seconds are measured in process time for solving
c 
c --- [ resources ] ----------------------------------------------------------
c 
c total process time since initialization:         8.32    seconds
c total real time since initialization:            8.40    seconds
c maximum resident set size of process:          103.31    MB
c 
c --- [ shutting down ] ------------------------------------------------------
c 
c exit 10
WARNING! DIMACS header mismatch: wrong number of variables.
============================[ Problem Statistics ]=============================
|                                                                             |
|  Number of variables:          2724                                         |
|  Number of clauses:           80846                                         |
|  Parse time:                   0.28 s                                       |
|  Simplification time:          0.01 s                                       |
|                                                                             |
============================[ Search Statistics ]====================================================
| Conflicts |          ORIGINAL         |          LEARNT          | Num Sols |      SUBGRAPHS      |
|           |    Vars  Clauses Literals |    Limit  Clauses Lit/Cl |          | Canonical Noncanon. |
=====================================================================================================
|       101 |    2626    80845  5157267 |     2000      101     89 |        0 |        14         1 |
|       251 |    2626    80845  5157267 |     2000      251     59 |        0 |        26         1 |
|       476 |    2626    80845  5157267 |     2000      476     62 |        0 |        30         1 |
|       815 |    2626    80847  5157319 |     2000      815     60 |        0 |        42         3 |
|      1325 |    2626    80851  5157396 |     2000     1325     57 |        0 |        70         7 |
|      2096 |    2626    80863  5157650 |     3606     1102     38 |        0 |       103        19 |
|      3236 |    2626    80864  5157665 |     3606     2242     48 |        0 |       131        20 |
|      4949 |    2626    80869  5157743 |     5008     2157     37 |        0 |       175        25 |
|      7541 |    2626    80899  5158241 |     5008     4749     48 |        0 |       268        55 |
|     11401 |    2626    80915  5158715 |     6306     6107     46 |        0 |       327        71 |
|     17287 |    2626    81035  5160481 |     8779     5066     32 |        0 |       423       191 |
|     26067 |    2626    81166  5162306 |     9992     9459     43 |        0 |       526       322 |
|     39119 |    2626    81244  5164058 |    12402    11921     50 |        0 |       600       400 |
|     58732 |    2626    81396  5166976 |    16011    11143     36 |        0 |       721       552 |
|     88172 |    2626    81644  5171283 |    19605    14777     37 |        0 |       903       800 |
|    132263 |    2597    51515  3026484 |    21656    13319     34 |        0 |      1121      1102 |
|    198196 |    2597    51764  3030301 |    30320    14916     24 |        0 |      1318      1351 |
=====================================================================================================
Number of solutions   : 0
Canonical subgraphs   : 1548           (116 /sec)
          order  3    : 1              (333333 /sec)
          order  4    : 1              (1000000 /sec)
          order  5    : 1              (333333 /sec)
          order  6    : 1              (62500 /sec)
          order  7    : 2              (12195 /sec)
          order  8    : 4              (2445 /sec)
          order  9    : 9              (514 /sec)
          order 10    : 35             (146 /sec)
          order 11    : 157            (109 /sec)
          order 12    : 619            (112 /sec)
          order 13    : 711            (117 /sec)
          order 14    : 6              (150 /sec)
          order 15    : 1              (127 /sec)
          order 16    : 0              (-nan /sec)
          order 17    : 0              (-nan /sec)
          order 18    : 0              (-nan /sec)
          order 19    : 0              (-nan /sec)
          order 20    : 0              (-nan /sec)
          order 21    : 0              (-nan /sec)
Noncanonical subgraphs: 1559           (3346 /sec)
          order  3    : 0              (-nan /sec)
          order  4    : 0              (-nan /sec)
          order  5    : 0              (-nan /sec)
          order  6    : 0              (-nan /sec)
          order  7    : 0              (-nan /sec)
          order  8    : 0              (-nan /sec)
          order  9    : 0              (-nan /sec)
          order 10    : 0              (-nan /sec)
          order 11    : 0              (-nan /sec)
          order 12    : 0              (-nan /sec)
          order 13    : 1319           (11882 /sec)
          order 14    : 237            (671 /sec)
          order 15    : 3              (1689 /sec)
          order 16    : 0              (-nan /sec)
          order 17    : 0              (-nan /sec)
          order 18    : 0              (-nan /sec)
          order 19    : 0              (-nan /sec)
          order 20    : 0              (-nan /sec)
Canonicity checking   : 13.3647 s
Noncanonicity checking: 0.465969 s
Total canonicity time : 13.8306 s
database reductions   : 25
restarts              : 540
conflicts             : 236368         (5935 /sec)
decisions             : 308642         (0.00 % random) (7749 /sec)
propagations          : 11395462       (286115 /sec)
conflict literals     : 13678780       (54.36 % deleted)
actual reward         : 0.245144
Memory used           : 99.00 MB
CPU time              : 39.8283 s

UNSATISFIABLE
